1620021600
1620052200
1620108000
1620138600
1620194400
1620225000
1620280800
1620311400
1620367200
1620397800
1620626400
1620657000
1620712800
1620738000
1620799200
1620829800
1620972000
1621002600
1621231200
1621261800
1621317600
1621348860
1621404000
1621434600
1621490400
1621521240
1621576800
1621610100
1621922400
1621953000
1621953000
1621954800
1622008800
1622039400
1622039400
1622041200
1622041200
1622047920
1622095200
1622126700
1622181600
1622212200
1622212200
1622214000
1622440800
1622471400
